(set-info :status unsat)
(declare-const symbol_55 (_ BitVec 32))
(declare-const symbol_32 (_ BitVec 32))
(declare-const symbol_155 (_ BitVec 32))
(declare-const symbol_68 (_ BitVec 32))
(declare-const symbol_162 (_ BitVec 32))
(declare-const symbol_163 (_ BitVec 32))
(declare-const symbol_160 (_ BitVec 32))
(declare-const symbol_78 (_ BitVec 32))
(declare-const symbol_134 (_ BitVec 32))
(declare-const symbol_125 (_ BitVec 32))
(declare-const symbol_156 (_ BitVec 32))
(declare-const symbol_118 (_ BitVec 32))
(declare-const symbol_91 (_ BitVec 32))
(declare-const symbol_153 (_ BitVec 32))
(declare-const symbol_149 (_ BitVec 32))
(declare-const symbol_109 (_ BitVec 32))
(declare-const symbol_17 (_ BitVec 32))
(declare-const symbol_54 (_ BitVec 32))
(declare-const symbol_45 (_ BitVec 32))
(declare-const symbol_132 (_ BitVec 32))
(declare-const symbol_113 (_ BitVec 32))
(declare-const symbol_49 (_ BitVec 32))
(declare-const symbol_131 (_ BitVec 32))
(declare-const symbol_137 (_ BitVec 32))
(declare-const symbol_63 (_ BitVec 32))
(declare-const symbol_141 (_ BitVec 32))
(declare-const symbol_116 (_ BitVec 32))
(declare-const symbol_102 (_ BitVec 32))
(declare-const symbol_85 (_ BitVec 32))
(declare-const symbol_143 (_ BitVec 32))
(declare-const symbol_10 (_ BitVec 32))
(declare-const symbol_4 (_ BitVec 32))
(declare-const symbol_26 (_ BitVec 32))
(declare-const symbol_28 (_ BitVec 32))
(declare-const symbol_158 (_ BitVec 32))
(declare-const symbol_0 (_ BitVec 32))
(declare-const symbol_139 (_ BitVec 32))
(declare-const symbol_104 (_ BitVec 32))
(declare-const symbol_82 (_ BitVec 32))
(declare-const symbol_9 (_ BitVec 32))
(declare-const symbol_96 (_ BitVec 32))
(declare-const symbol_65 (_ BitVec 32))
(declare-const symbol_36 (_ BitVec 32))
(declare-const symbol_47 (_ BitVec 32))
(declare-const symbol_52 (_ BitVec 32))
(declare-const symbol_16 (_ BitVec 32))
(declare-const symbol_61 (_ BitVec 32))
(declare-const symbol_34 (_ BitVec 32))
(declare-const symbol_95 (_ BitVec 32))
(declare-const symbol_14 (_ BitVec 32))
(declare-const symbol_24 (_ BitVec 32))
(declare-const symbol_105 (_ BitVec 32))
(declare-const symbol_100 (_ BitVec 32))
(declare-const symbol_57 (_ BitVec 32))
(declare-const symbol_127 (_ BitVec 32))
(declare-const symbol_74 (_ BitVec 32))
(declare-const symbol_22 (_ BitVec 32))
(declare-const symbol_72 (_ BitVec 32))
(declare-const symbol_67 (_ BitVec 32))
(declare-const symbol_41 (_ BitVec 32))
(declare-const symbol_83 (_ BitVec 32))
(declare-const symbol_122 (_ BitVec 32))
(declare-const symbol_80 (_ BitVec 32))
(declare-const symbol_147 (_ BitVec 32))
(declare-const symbol_30 (_ BitVec 32))
(declare-const symbol_136 (_ BitVec 32))
(declare-const symbol_111 (_ BitVec 32))
(declare-const symbol_37 (_ BitVec 32))
(declare-const symbol_19 (_ BitVec 32))
(declare-const symbol_120 (_ BitVec 32))
(declare-const symbol_43 (_ BitVec 32))
(declare-const symbol_93 (_ BitVec 32))
(declare-const symbol_2 (_ BitVec 32))
(declare-const symbol_107 (_ BitVec 32))
(declare-const symbol_51 (_ BitVec 32))
(declare-const symbol_151 (_ BitVec 32))
(declare-const symbol_98 (_ BitVec 32))
(declare-const symbol_89 (_ BitVec 32))
(declare-const symbol_124 (_ BitVec 32))
(declare-const symbol_20 (_ BitVec 32))
(declare-const symbol_7 (_ BitVec 32))
(declare-const symbol_59 (_ BitVec 32))
(declare-const symbol_39 (_ BitVec 32))
(declare-const symbol_146 (_ BitVec 32))
(declare-const symbol_12 (_ BitVec 32))
(declare-const symbol_129 (_ BitVec 32))
(declare-const symbol_114 (_ BitVec 32))
(declare-const symbol_76 (_ BitVec 32))
(declare-const symbol_70 (_ BitVec 32))
(declare-const symbol_5 (_ BitVec 32))
(declare-const symbol_87 (_ BitVec 32))
(assert (= symbol_163 (_ bv3 32)))
(assert (not (not (= symbol_163 (_ bv5 32)))))
(assert (not (not (= symbol_162 (_ bv5 32)))))
(assert (not (not (= symbol_160 (_ bv5 32)))))
(assert (not (not (= symbol_158 (_ bv5 32)))))
(assert (not (not (= symbol_156 (_ bv5 32)))))
(assert (not (not (= symbol_155 (_ bv5 32)))))
(assert (not (not (= symbol_153 (_ bv5 32)))))
(assert (not (not (= symbol_151 (_ bv5 32)))))
(assert (not (not (= symbol_149 (_ bv5 32)))))
(assert (not (not (= symbol_147 (_ bv5 32)))))
(assert (not (not (= symbol_146 (_ bv5 32)))))
(assert (not (not (= symbol_143 (_ bv5 32)))))
(assert (not (not (= symbol_141 (_ bv5 32)))))
(assert (not (not (= symbol_139 (_ bv5 32)))))
(assert (not (not (= symbol_137 (_ bv5 32)))))
(assert (not (not (= symbol_136 (_ bv5 32)))))
(assert (not (not (= symbol_134 (_ bv5 32)))))
(assert (not (not (= symbol_132 (_ bv5 32)))))
(assert (not (not (= symbol_131 (_ bv5 32)))))
(assert (not (not (= symbol_129 (_ bv5 32)))))
(assert (not (not (= symbol_127 (_ bv5 32)))))
(assert (not (not (= symbol_125 (_ bv5 32)))))
(assert (not (not (= symbol_124 (_ bv5 32)))))
(assert (not (not (= symbol_122 (_ bv5 32)))))
(assert (not (not (= symbol_120 (_ bv5 32)))))
(assert (not (not (= symbol_118 (_ bv5 32)))))
(assert (not (not (= symbol_116 (_ bv5 32)))))
(assert (not (not (= symbol_114 (_ bv5 32)))))
(assert (not (not (= symbol_113 (_ bv5 32)))))
(assert (not (not (= symbol_111 (_ bv5 32)))))
(assert (not (not (= symbol_109 (_ bv5 32)))))
(assert (not (not (= symbol_107 (_ bv5 32)))))
(assert (not (not (= symbol_105 (_ bv5 32)))))
(assert (not (not (= symbol_104 (_ bv5 32)))))
(assert (not (not (= symbol_102 (_ bv5 32)))))
(assert (not (not (= symbol_100 (_ bv5 32)))))
(assert (not (not (= symbol_98 (_ bv5 32)))))
(assert (not (not (= symbol_96 (_ bv5 32)))))
(assert (not (not (= symbol_95 (_ bv5 32)))))
(assert (not (not (= symbol_93 (_ bv5 32)))))
(assert (not (not (= symbol_91 (_ bv5 32)))))
(assert (not (not (= symbol_89 (_ bv5 32)))))
(assert (not (not (= symbol_87 (_ bv5 32)))))
(assert (not (not (= symbol_85 (_ bv5 32)))))
(assert (not (not (= symbol_83 (_ bv5 32)))))
(assert (not (not (= symbol_82 (_ bv5 32)))))
(assert (not (not (= symbol_80 (_ bv5 32)))))
(assert (not (not (= symbol_78 (_ bv5 32)))))
(assert (not (not (= symbol_76 (_ bv5 32)))))
(assert (not (not (= symbol_74 (_ bv5 32)))))
(assert (not (not (= symbol_72 (_ bv5 32)))))
(assert (not (not (= symbol_70 (_ bv5 32)))))
(assert (not (not (= symbol_68 (_ bv5 32)))))
(assert (not (not (= symbol_67 (_ bv5 32)))))
(assert (not (not (= symbol_65 (_ bv5 32)))))
(assert (not (not (= symbol_63 (_ bv5 32)))))
(assert (not (not (= symbol_61 (_ bv5 32)))))
(assert (not (not (= symbol_59 (_ bv5 32)))))
(assert (not (not (= symbol_57 (_ bv5 32)))))
(assert (not (not (= symbol_55 (_ bv5 32)))))
(assert (not (not (= symbol_54 (_ bv5 32)))))
(assert (not (not (= symbol_52 (_ bv5 32)))))
(assert (not (not (= symbol_51 (_ bv5 32)))))
(assert (not (not (= symbol_49 (_ bv5 32)))))
(assert (not (not (= symbol_47 (_ bv5 32)))))
(assert (not (not (= symbol_45 (_ bv5 32)))))
(assert (not (not (= symbol_43 (_ bv5 32)))))
(assert (not (not (= symbol_41 (_ bv5 32)))))
(assert (not (not (= symbol_39 (_ bv5 32)))))
(assert (not (not (= symbol_37 (_ bv5 32)))))
(assert (not (not (= symbol_36 (_ bv5 32)))))
(assert (not (not (= symbol_34 (_ bv5 32)))))
(assert (not (not (= symbol_32 (_ bv5 32)))))
(assert (not (not (= symbol_30 (_ bv5 32)))))
(assert (not (not (= symbol_28 (_ bv5 32)))))
(assert (not (not (= symbol_26 (_ bv5 32)))))
(assert (not (not (= symbol_24 (_ bv5 32)))))
(assert (not (not (= symbol_22 (_ bv5 32)))))
(assert (not (not (= symbol_20 (_ bv5 32)))))
(assert (not (not (= symbol_19 (_ bv5 32)))))
(assert (not (not (= symbol_17 (_ bv5 32)))))
(assert (not (not (= symbol_16 (_ bv5 32)))))
(assert (not (not (= symbol_14 (_ bv5 32)))))
(assert (not (not (= symbol_12 (_ bv5 32)))))
(assert (not (not (= symbol_10 (_ bv5 32)))))
(assert (not (not (= symbol_9 (_ bv5 32)))))
(assert (not (not (= symbol_7 (_ bv5 32)))))
(assert (not (not (= symbol_5 (_ bv5 32)))))
(assert (not (not (= symbol_4 (_ bv5 32)))))
(assert (not (not (= symbol_2 (_ bv5 32)))))
(assert (not (not (= symbol_0 (_ bv1 32)))))
(assert (not (= symbol_0 (_ bv5 32))))
(check-sat)